experiment/data/hgs-res/Vrp-Set-X-n143/Vrp-Set-X-n143-hgs/0.hgs1.vrp
NAME : 0
COMMENT : CVRP Instance
TYPE : CVRP
DIMENSION : 143
EDGE_WEIGHT_TYPE : EUC_2D
CAPACITY : 1190
NODE_COORD_SECTION
1	0.0	0.0
2	175.0	821.0
3	62.0	495.0
4	662.0	959.0
5	109.0	216.0
6	156.0	748.0
7	178.0	957.0
8	347.0	184.0
9	89.0	814.0
10	257.0	265.0
11	662.0	892.0
12	881.0	69.0
13	478.0	9.0
14	76.0	79.0
15	898.0	650.0
16	711.0	766.0
17	325.0	163.0
18	42.0	411.0
19	722.0	221.0
20	366.0	190.0
21	378.0	521.0
22	907.0	497.0
23	924.0	738.0
24	954.0	524.0
25	594.0	724.0
26	253.0	89.0
27	746.0	971.0
28	655.0	716.0
29	627.0	301.0
30	994.0	958.0
31	384.0	833.0
32	234.0	979.0
33	337.0	173.0
34	865.0	383.0
35	488.0	878.0
36	531.0	291.0
37	289.0	151.0
38	935.0	667.0
39	659.0	800.0
40	965.0	898.0
41	248.0	436.0
42	97.0	623.0
43	953.0	932.0
44	30.0	810.0
45	683.0	120.0
46	577.0	83.0
47	376.0	751.0
48	804.0	302.0
49	265.0	688.0
50	425.0	392.0
51	392.0	371.0
52	438.0	417.0
53	373.0	511.0
54	19.0	913.0
55	415.0	49.0
56	663.0	461.0
57	583.0	355.0
58	569.0	522.0
59	312.0	683.0
60	288.0	508.0
61	177.0	874.0
62	609.0	113.0
63	905.0	309.0
64	701.0	895.0
65	640.0	112.0
66	504.0	95.0
67	466.0	606.0
68	367.0	726.0
69	161.0	8.0
70	944.0	892.0
71	223.0	393.0
72	329.0	371.0
73	130.0	888.0
74	450.0	443.0
75	857.0	128.0
76	709.0	966.0
77	642.0	967.0
78	872.0	705.0
79	0.0	414.0
80	207.0	911.0
81	993.0	855.0
82	883.0	147.0
83	740.0	490.0
84	600.0	372.0
85	184.0	48.0
86	489.0	259.0
87	114.0	737.0
88	244.0	783.0
89	420.0	439.0
90	522.0	41.0
91	617.0	177.0
92	575.0	340.0
93	607.0	806.0
94	144.0	513.0
95	695.0	974.0
96	603.0	507.0
97	855.0	318.0
98	343.0	206.0
99	244.0	929.0
100	418.0	513.0
101	976.0	38.0
102	435.0	672.0
103	120.0	988.0
104	691.0	853.0
105	986.0	418.0
106	566.0	975.0
107	625.0	733.0
108	166.0	787.0
109	605.0	798.0
110	209.0	194.0
111	19.0	892.0
112	169.0	840.0
113	756.0	913.0
114	666.0	928.0
115	13.0	829.0
116	103.0	304.0
117	63.0	384.0
118	564.0	787.0
119	271.0	50.0
120	949.0	738.0
121	357.0	228.0
122	363.0	898.0
123	912.0	704.0
124	765.0	462.0
125	167.0	348.0
126	848.0	405.0
127	5.0	76.0
128	188.0	65.0
129	229.0	41.0
130	632.0	968.0
131	75.0	96.0
132	936.0	903.0
133	982.0	492.0
134	658.0	258.0
135	600.0	833.0
136	299.0	593.0
137	65.0	277.0
138	695.0	468.0
139	508.0	995.0
140	651.0	522.0
141	824.0	865.0
142	842.0	802.0
143	684.0	432.0
DEMAND_SECTION
1	0
2	95
3	35
4	81
5	12
6	3
7	99
8	47
9	64
10	20
11	47
12	27
13	77
14	50
15	75
16	14
17	24
18	3
19	58
20	65
21	98
22	35
23	35
24	45
25	52
26	11
27	13
28	11
29	76
30	98
31	5
32	9
33	87
34	71
35	83
36	2
37	54
38	63
39	63
40	21
41	36
42	17
43	15
44	44
45	62
46	87
47	90
48	92
49	18
50	41
51	85
52	62
53	72
54	9
55	18
56	76
57	17
58	42
59	43
60	55
61	42
62	2
63	78
64	25
65	29
66	78
67	67
68	40
69	71
70	21
71	57
72	35
73	17
74	14
75	11
76	3
77	45
78	54
79	39
80	96
81	56
82	73
83	55
84	53
85	92
86	71
87	63
88	47
89	86
90	86
91	58
92	68
93	27
94	77
95	67
96	19
97	60
98	42
99	3
100	47
101	4
102	57
103	44
104	90
105	97
106	37
107	49
108	58
109	67
110	30
111	85
112	31
113	28
114	26
115	86
116	90
117	99
118	99
119	35
120	62
121	49
122	71
123	74
124	3
125	71
126	99
127	38
128	96
129	71
130	92
131	6
132	77
133	94
134	47
135	92
136	90
137	67
138	16
139	47
140	61
141	68
142	93
143	96
DEPOT_SECTION
1
-1
EOF
